NAME: tsp10_3
COMMENT: 10-tsp problem (Padberg/Rinaldi)
TYPE: TSP
DIMENSION: 10
EDGE_WEIGHT_TYPE : EUC_2D
NODE_COORD_SECTION
1 36 39
2 18 2
3 26 11
4 6 12
5 30 1
6 2 22
7 28 38
8 6 26
9 21 27
10 38 13
